p cnf 68 256
3 -1 0
3 1 0
-2 -3 -4 0
2 3 -4 0
-2 3 4 0
2 -3 4 0
-1 4 -5 0
1 -4 -5 0
-1 -4 5 0
1 4 5 0
8 -6 0
8 -7 0
6 7 -8 0
-9 8 0
-9 -7 0
-8 7 9 0
10 5 0
10 9 0
-5 -9 -10 0
-12 11 0
-12 2 0
-11 -2 12 0
13 5 0
13 -12 0
-5 12 -13 0
-2 -13 -14 0
2 13 -14 0
-2 13 14 0
2 -13 14 0
-15 -14 0
-15 -14 0
14 15 0
10 15 -16 0
-10 -15 -16 0
10 -15 16 0
-10 15 16 0
-17 2 0
-17 4 0
-2 -4 17 0
19 -17 0
19 -18 0
17 18 -19 0
20 16 0
20 19 0
-16 -19 -20 0
22 -2 0
22 21 0
2 -21 -22 0
-4 23 -24 0
4 -23 -24 0
-4 -23 24 0
4 23 24 0
6 24 -25 0
-6 -24 -25 0
6 -24 25 0
-6 24 25 0
25 1 -26 0
-25 -1 -26 0
25 -1 26 0
-25 1 26 0
27 22 0
27 -26 0
-22 26 -27 0
-28 -27 0
-28 -5 0
27 5 28 0
-29 -20 0
-29 -28 0
20 28 29 0
-31 -1 0
-31 -30 0
1 30 31 0
-32 15 0
-32 -31 0
-15 31 32 0
33 -29 0
33 32 0
29 -32 -33 0
-6 -5 -34 0
6 5 -34 0
-6 5 34 0
6 -5 34 0
35 34 0
35 15 0
-34 -15 -35 0
36 -33 0
36 35 0
33 -35 -36 0
-21 -9 -37 0
21 9 -37 0
-21 9 37 0
21 -9 37 0
38 -18 0
38 -23 0
18 23 -38 0
17 -39 -40 0
-17 39 -40 0
17 39 40 0
-17 -39 40 0
-41 -38 0
-41 40 0
38 -40 41 0
37 41 -42 0
-37 -41 -42 0
37 -41 42 0
-37 41 42 0
-25 9 -43 0
25 -9 -43 0
-25 -9 43 0
25 9 43 0
-44 -42 0
-44 -43 0
42 43 44 0
45 -3 0
45 -31 0
3 31 -45 0
-46 18 0
-46 -5 0
-18 5 46 0
46 3 -47 0
-46 -3 -47 0
46 -3 47 0
-46 3 47 0
47 -8 -48 0
-47 8 -48 0
47 8 48 0
-47 -8 48 0
49 48 0
49 13 0
-48 -13 -49 0
-45 -49 -50 0
45 49 -50 0
-45 49 50 0
45 -49 50 0
44 50 -51 0
-44 -50 -51 0
44 -50 51 0
-44 50 51 0
-52 -36 0
-52 51 0
36 -51 52 0
53 -12 0
53 -6 0
12 6 -53 0
54 30 0
54 13 0
-30 -13 -54 0
-55 54 0
-55 -26 0
-54 26 55 0
6 -23 -56 0
-6 23 -56 0
6 23 56 0
-6 -23 56 0
-57 55 0
-57 56 0
-55 -56 57 0
-11 -22 -58 0
11 22 -58 0
-11 22 58 0
11 -22 58 0
6 10 -59 0
-6 -10 -59 0
6 -10 59 0
-6 10 59 0
-60 -58 0
-60 59 0
58 -59 60 0
61 57 0
61 60 0
-57 -60 -61 0
-53 -61 -62 0
53 61 -62 0
-53 61 62 0
53 -61 62 0
-63 -25 0
-63 -26 0
25 26 63 0
-63 -21 -64 0
63 21 -64 0
-63 21 64 0
63 -21 64 0
-9 -17 -65 0
9 17 -65 0
-9 17 65 0
9 -17 65 0
64 65 -66 0
-64 -65 -66 0
64 -65 66 0
-64 65 66 0
67 62 0
67 -66 0
-62 66 -67 0
68 52 0
68 -67 0
-52 67 -68 0
56 -7 19 -64 -39 0
-58 -8 -38 20 0
-9 37 4 -32 27 0
-68 20 24 -57 30 -18 0
-27 16 -30 0
-3 20 -34 0
-4 3 0
7 66 -46 0
6 -42 -57 0
14 -11 2 0
41 67 25 0
32 -41 54 64 48 0
-10 -67 46 0
51 -52 -35 15 -47 0
-18 -26 42 45 43 32 0
-61 54 -53 -23 6 33 0
-1 2 0
-54 -68 -47 -25 0
18 -54 -30 -2 27 1 0
11 -18 -20 -32 -25 0
2 40 66 -46 49 0
33 -35 68 0
53 33 0
43 34 57 -40 0
-8 53 0
56 -68 -53 -11 0
42 9 -59 52 0
2 12 -15 0
36 -20 0
-22 -55 35 0
9 49 -39 -7 -14 0
-56 18 -5 0
56 61 0
-53 -68 -26 18 -20 67 0
33 52 13 -65 -22 0
-64 -43 50 -23 0
-44 -42 0
-7 -64 0
-35 36 0
58 -15 -44 0
-7 -54 16 0
-26 4 0
32 -38 -15 17 -12 0
-45 -48 34 -4 58 0
-25 -35 0
-38 20 0
41 4 0
61 -39 46 -38 0
-49 7 46 0
-22 -41 18 68 30 9 0
19 38 -2 14 0
52 41 -44 0
26 63 -18 0
57 -49 0
33 46 0
-27 25 17 -62 -48 10 0
-39 9 -6 0
-46 17 -65 45 -48 55 0
25 51 41 39 0
68 0
